c SAT problem
p wcnf 382 1433
1 75 -3150 0
1 -75 3120 0
1 90 -3105 0
1 -90 3120 0
1 90 3165 0
1 105 -3105 0
1 -105 3075 0
1 105 3135 0
1 -3120 135 0
1 3120 181 0
1 3120 -150 0
1 3120 60 0
1 -3135 105 0
1 3135 -181 0
1 -3150 -75 0
1 -3150 -60 0
1 -3150 3165 0
1 120 121 0
1 -120 -3135 0
1 135 -3075 0
1 -135 120 0
1 -150 -3015 0
1 -150 3060 0
1 -150 -3000 0
1 -165 -3075 0
1 -165 -3090 0
1 -165 3030 0
1 -3060 195 0
1 3060 135 0
1 -3060 240 0
1 -3060 -210 0
1 -3060 3061 0
1 3075 240 0
1 -3075 -210 0
1 -3075 120 0
1 -3075 -255 0
1 3090 -196 0
1 -3090 120 0
1 3105 165 0
1 -3105 240 0
1 -3105 150 0
1 -180 -3015 0
1 -180 -181 0
1 180 -3000 0
1 195 -196 0
1 195 -180 0
1 195 -3060 0
1 -210 3075 0
1 210 -3030 0
1 225 -226 0
1 225 -3015 0
1 -225 -3060 0
1 -3000 -225 0
1 3000 165 0
1 -3000 -300 0
1 -3000 150 0
1 3015 -225 0
1 -3015 195 0
1 -3015 -165 0
1 -3015 -180 0
1 3015 315 0
1 3030 -240 0
1 -3030 -3031 0
1 3045 -195 0
1 3045 270 0
1 -3045 240 0
1 -61 3300 0
1 -61 62 0
1 -76 3300 0
1 76 3315 0
1 91 3300 0
1 -106 -3300 0
1 -106 107 0
1 -106 -3345 0
1 -106 3285 0
1 -3300 106 0
1 -3300 -61 0
1 3315 136 0
1 3315 -76 0
1 3315 3316 0
1 3330 137 0
1 -3330 106 0
1 3330 3345 0
1 -3330 182 0
1 -3330 152 0
1 3345 182 0
1 -3345 91 0
1 121 3300 0
1 -121 3150 0
1 121 3285 0
1 136 -3315 0
1 136 -3285 0
1 151 3300 0
1 -151 150 0
1 -151 152 0
1 -151 -3165 0
1 -166 -167 0
1 -166 -3240 0
1 3240 -3255 0
1 3240 -106 0
1 3240 -91 0
1 -3255 226 0
1 3255 136 0
1 -3255 3240 0
1 -3255 -181 0
1 3255 3256 0
1 -3255 91 0
1 3270 -256 0
1 -3270 -166 0
1 3270 106 0
1 3285 136 0
1 -3285 106 0
1 3285 -182 0
1 -3285 151 0
1 3285 -91 0
1 181 -196 0
1 -181 3210 0
1 -181 3090 0
1 181 -3225 0
1 -196 -195 0
1 -196 197 0
1 196 3210 0
1 196 -3180 0
1 196 3150 0
1 -196 -181 0
1 196 -3255 0
1 211 226 0
1 211 -3210 0
1 -211 3180 0
1 -211 3121 0
1 211 -212 0
1 -211 3195 0
1 -226 3136 0
1 226 -225 0
1 226 -3240 0
1 226 3195 0
1 226 -3166 0
1 3180 196 0
1 -3180 166 0
1 3180 -285 0
1 -3195 166 0
1 3195 3180 0
1 -3195 -240 0
1 -3195 255 0
1 3210 196 0
1 -3210 271 0
1 -3210 -211 0
1 3225 -3210 0
1 3225 151 0
1 -240 241 0
1 -240 -3090 0
1 -240 3121 0
1 240 -255 0
1 -255 3180 0
1 255 3121 0
1 255 -3090 0
1 -255 3166 0
1 270 -3106 0
1 270 3045 0
1 -270 -271 0
1 270 -3151 0
1 -270 3091 0
1 270 3061 0
1 -270 -3030 0
1 -270 3195 0
1 270 285 0
1 285 3106 0
1 -285 3076 0
1 -285 -3180 0
1 -285 -270 0
1 285 -3121 0
1 -285 -3061 0
1 285 -3195 0
1 -3121 -3136 0
1 3121 3122 0
1 -3121 -211 0
1 -3121 285 0
1 -3136 -330 0
1 -3136 -300 0
1 -3136 -240 0
1 -3136 -211 0
1 3136 -255 0
1 -3151 361 0
1 3151 3150 0
1 3151 3152 0
1 -3151 -211 0
1 -3151 -316 0
1 -3166 226 0
1 3166 331 0
1 3166 270 0
1 3166 -285 0
1 3166 -255 0
1 -300 -3015 0
1 300 3061 0
1 300 3030 0
1 -300 3000 0
1 -300 -315 0
1 315 3136 0
1 -315 -3106 0
1 315 3121 0
1 -330 -3136 0
1 -330 3046 0
1 -330 331 0
1 330 -3091 0
1 -330 3001 0
1 345 3076 0
1 -345 330 0
1 -3061 -390 0
1 -3061 -405 0
1 3076 420 0
1 3076 -330 0
1 -3076 -270 0
1 3076 -405 0
1 -3076 -3061 0
1 3076 -375 0
1 -3076 -315 0
1 -3091 -391 0
1 3091 -3092 0
1 -3091 -376 0
1 3091 -315 0
1 3106 -300 0
1 -3106 -435 0
1 3106 -376 0
1 3106 -285 0
1 -360 -3031 0
1 -360 3061 0
1 -360 375 0
1 -360 -3001 0
1 375 3061 0
1 375 3001 0
1 -390 391 0
1 390 405 0
1 390 3031 0
1 -405 -390 0
1 -405 -3016 0
1 -405 3001 0
1 3001 -3016 0
1 3001 -330 0
1 3001 345 0
1 -3016 3015 0
1 3016 -360 0
1 3016 -345 0
1 -3031 -480 0
1 3031 420 0
1 -3031 -390 0
1 3031 465 0
1 -3031 -345 0
1 -3046 480 0
1 3046 -3045 0
1 3046 390 0
1 3046 3047 0
1 -3046 -345 0
1 62 -3525 0
1 -62 3495 0
1 -62 3480 0
1 -62 61 0
1 -62 -63 0
1 -77 -3525 0
1 77 78 0
1 -77 3510 0
1 -77 3480 0
1 -92 -107 0
1 -92 -3420 0
1 -92 93 0
1 -107 -3525 0
1 -107 3435 0
1 -107 108 0
1 -107 -3480 0
1 -3480 3495 0
1 -3480 122 0
1 3495 -107 0
1 -3495 -77 0
1 -3495 152 0
1 3495 122 0
1 3510 168 0
1 -3510 -183 0
1 3510 123 0
1 -3525 198 0
1 3525 -168 0
1 -3525 138 0
1 3525 -107 0
1 -3525 92 0
1 137 3435 0
1 -137 -3480 0
1 152 -167 0
1 -152 151 0
1 -152 3420 0
1 152 3390 0
1 167 -3330 0
1 -167 -3495 0
1 -167 3420 0
1 -3420 -227 0
1 -3420 212 0
1 -3435 257 0
1 3435 -137 0
1 3435 182 0
1 3435 -3420 0
1 -3435 -152 0
1 3435 122 0
1 -3450 167 0
1 3450 137 0
1 3450 -3465 0
1 3450 242 0
1 -3450 122 0
1 3450 3451 0
1 3465 -257 0
1 3465 -198 0
1 -3465 -3466 0
1 -3465 3450 0
1 -3465 242 0
1 3465 183 0
1 3465 -122 0
1 3465 92 0
1 182 3330 0
1 -182 -3270 0
1 182 -3315 0
1 197 -3270 0
1 -197 -198 0
1 197 -3435 0
1 197 -3345 0
1 -197 3420 0
1 -197 -3390 0
1 212 227 0
1 -212 3346 0
1 212 -211 0
1 -212 -213 0
1 -227 -3270 0
1 227 -3435 0
1 3360 256 0
1 3360 197 0
1 -3360 241 0
1 3360 -317 0
1 3375 256 0
1 3375 227 0
1 3375 -197 0
1 3375 167 0
1 3375 -302 0
1 3375 -212 0
1 -3375 -152 0
1 3375 317 0
1 -3390 272 0
1 -3390 242 0
1 3390 -182 0
1 -3390 152 0
1 -3390 -287 0
1 241 -256 0
1 -241 3270 0
1 241 3210 0
1 241 3375 0
1 -241 242 0
1 -241 3346 0
1 241 -3255 0
1 -256 3240 0
1 -256 3210 0
1 -256 -3375 0
1 -256 -3225 0
1 -256 -255 0
1 -271 3331 0
1 -271 270 0
1 271 -3316 0
1 -286 -3301 0
1 286 -271 0
1 -286 3256 0
1 -286 287 0
1 3301 3302 0
1 3301 241 0
1 -3301 346 0
1 3316 -256 0
1 -3316 241 0
1 -3316 -3317 0
1 -3316 -377 0
1 3331 -256 0
1 -3331 -362 0
1 3331 271 0
1 -3331 -377 0
1 -3331 347 0
1 -3346 -227 0
1 3346 271 0
1 -3346 -317 0
1 -301 -3180 0
1 301 -3151 0
1 -301 3256 0
1 301 -3225 0
1 301 -3166 0
1 316 3241 0
1 -316 -3225 0
1 -316 -315 0
1 -316 3166 0
1 331 3301 0
1 -331 332 0
1 331 -3256 0
1 -346 3301 0
1 346 3241 0
1 -346 3196 0
1 -3241 -3240 0
1 3241 361 0
1 -3241 -331 0
1 3241 -301 0
1 -3241 346 0
1 3241 -316 0
1 -3241 -286 0
1 3256 421 0
1 -3256 406 0
1 3271 -331 0
1 3271 -436 0
1 3271 286 0
1 3286 3287 0
1 3286 331 0
1 3286 377 0
1 3286 -286 0
1 361 -3106 0
1 361 360 0
1 361 362 0
1 -361 3211 0
1 361 376 0
1 376 -3121 0
1 376 -3091 0
1 376 -377 0
1 376 -3166 0
1 391 -3137 0
1 -391 3241 0
1 -391 3256 0
1 -391 -3226 0
1 -391 3196 0
1 406 -3211 0
1 406 3196 0
1 -3181 -450 0
1 3181 496 0
1 -3181 -465 0
1 -3181 3196 0
1 3196 -3181 0
1 -3196 -465 0
1 3196 435 0
1 3196 -376 0
1 3196 -3197 0
1 -3211 -451 0
1 -3211 3212 0
1 3211 436 0
1 -3211 346 0
1 -3226 -421 0
1 3226 391 0
1 3226 436 0
1 3226 376 0
1 420 -3106 0
1 -420 -3076 0
1 420 3152 0
1 -420 -435 0
1 -435 420 0
1 435 -3152 0
1 435 3091 0
1 -435 -436 0
1 -435 3031 0
1 -435 3196 0
1 450 -3137 0
1 -450 -3046 0
1 450 3092 0
1 -450 3196 0
1 -465 3137 0
1 -465 3107 0
1 -465 3077 0
1 465 3046 0
1 -465 -466 0
1 -465 3062 0
1 -3122 450 0
1 -3122 391 0
1 3122 -525 0
1 3122 -495 0
1 -3122 -435 0
1 3122 406 0
1 -3122 -510 0
1 3137 -450 0
1 -3137 556 0
1 3137 -525 0
1 3137 -495 0
1 -3137 510 0
1 3152 526 0
1 -3152 465 0
1 -3152 435 0
1 3167 -481 0
1 -3167 -450 0
1 3167 556 0
1 3167 526 0
1 3167 -496 0
1 3167 465 0
1 480 -3107 0
1 -480 -495 0
1 480 3001 0
1 -495 -480 0
1 495 3137 0
1 -495 -3062 0
1 495 3031 0
1 510 3107 0
1 510 -3047 0
1 -510 -3017 0
1 -510 511 0
1 -525 3107 0
1 525 -3047 0
1 525 3017 0
1 -525 3032 0
1 -3062 -480 0
1 -3062 -3077 0
1 -3062 585 0
1 -3062 -555 0
1 -3062 3063 0
1 -3062 570 0
1 -3077 -480 0
1 3077 3076 0
1 3077 -465 0
1 -3077 -600 0
1 3077 -570 0
1 3092 3107 0
1 3092 -465 0
1 3107 -3106 0
1 3107 -615 0
1 -3107 -586 0
1 3107 556 0
1 -3107 -600 0
1 -3107 -571 0
1 -3107 541 0
1 540 3047 0
1 -540 541 0
1 -555 3047 0
1 -555 556 0
1 -555 -540 0
1 570 3002 0
1 585 -3077 0
1 585 -3017 0
1 3002 -3017 0
1 3017 3002 0
1 3017 675 0
1 3017 -555 0
1 -3017 -540 0
1 3017 -510 0
1 3032 -3047 0
1 3032 3033 0
1 -3032 570 0
1 -3047 -3048 0
1 -3047 555 0
1 3047 -630 0
1 -3047 3032 0
1 -3047 600 0
1 -63 3690 0
1 63 -78 0
1 78 -77 0
1 -93 3690 0
1 -93 3630 0
1 93 -3705 0
1 93 92 0
1 93 3645 0
1 -108 -107 0
1 108 3600 0
1 -108 -93 0
1 -3660 138 0
1 -3660 108 0
1 3660 -3675 0
1 3675 3660 0
1 -3675 -78 0
1 3675 -153 0
1 3675 -63 0
1 3690 -78 0
1 -3690 3705 0
1 123 3615 0
1 -138 -3600 0
1 138 3645 0
1 138 -3615 0
1 -153 -3600 0
1 -153 -3510 0
1 -153 -3645 0
1 -168 -3555 0
1 168 -167 0
1 -168 3660 0
1 -168 3645 0
1 168 -3615 0
1 -3600 -108 0
1 -3600 -123 0
1 3615 3616 0
1 3615 -228 0
1 3615 -243 0
1 -3615 213 0
1 -3615 -93 0
1 -3630 -258 0
1 3630 138 0
1 3645 258 0
1 -3645 108 0
1 -3645 -153 0
1 -3645 93 0
1 183 3480 0
1 183 3495 0
1 183 -3525 0
1 -183 3465 0
1 -183 -3540 0
1 -183 3510 0
1 198 -3585 0
1 -198 -3525 0
1 -198 -3510 0
1 198 3480 0
1 213 -3585 0
1 213 -3615 0
1 -228 -3585 0
1 -228 227 0
1 -228 3526 0
1 -228 3600 0
1 -228 3511 0
1 228 3450 0
1 3540 -303 0
1 -3555 -168 0
1 -3555 -303 0
1 3555 3540 0
1 -3555 -153 0
1 3570 3585 0
1 -3570 198 0
1 3570 -243 0
1 -3570 213 0
1 3570 -318 0
1 -3585 288 0
1 3585 228 0
1 3585 -213 0
1 -3585 -153 0
1 -242 -257 0
1 242 -3435 0
1 -242 -3540 0
1 -242 3390 0
1 257 256 0
1 -257 -3526 0
1 -257 3465 0
1 272 -3496 0
1 272 -3436 0
1 272 -273 0
1 -272 -287 0
1 287 3390 0
1 -287 286 0
1 -3481 -272 0
1 -3481 3480 0
1 3481 -378 0
1 3481 -317 0
1 -3496 228 0
1 -3496 3497 0
1 -3496 332 0
1 3496 -272 0
1 3496 -317 0
1 3496 -287 0
1 3511 -228 0
1 3511 363 0
1 -3511 378 0
1 -3511 -287 0
1 -3526 228 0
1 3526 363 0
1 -3526 -213 0
1 3526 378 0
1 302 -3496 0
1 302 3421 0
1 -302 -317 0
1 -317 -3360 0
1 -317 -3331 0
1 317 3496 0
1 317 302 0
1 -317 3421 0
1 317 -318 0
1 -332 -3331 0
1 332 -3466 0
1 332 -3406 0
1 332 3346 0
1 332 -3481 0
1 -332 -347 0
1 -347 -3331 0
1 -347 -3466 0
1 -347 -3421 0
1 3421 -422 0
1 3421 -332 0
1 -3421 272 0
1 3421 377 0
1 3421 3420 0
1 -3421 3422 0
1 3436 422 0
1 3436 3435 0
1 -3436 3437 0
1 3436 407 0
1 3436 -3421 0
1 -3436 287 0
1 -3466 393 0
1 -3466 -363 0
1 -3466 -332 0
1 -362 3331 0
1 362 -3271 0
1 -362 -361 0
1 -362 3421 0
1 -377 3331 0
1 -377 -3271 0
1 -377 -362 0
1 377 -3406 0
1 377 -3376 0
1 -377 3346 0
1 377 3286 0
1 392 3361 0
1 -392 -3302 0
1 -392 3271 0
1 -392 -391 0
1 392 -393 0
1 -392 -3376 0
1 392 3317 0
1 392 -3421 0
1 -407 392 0
1 -407 -3286 0
1 407 3421 0
1 -3361 497 0
1 -3361 466 0
1 -3361 -377 0
1 -3376 -362 0
1 3376 466 0
1 -3376 436 0
1 3376 -377 0
1 -3391 482 0
1 3391 467 0
1 -3391 407 0
1 3391 -377 0
1 3406 -3405 0
1 3406 -3407 0
1 -3406 497 0
1 -3406 -467 0
1 3406 -347 0
1 -3406 3391 0
1 421 420 0
1 -421 422 0
1 -421 3211 0
1 -421 -3376 0
1 -421 3347 0
1 421 3256 0
1 436 3302 0
1 -436 -3271 0
1 -436 3211 0
1 -451 -452 0
1 451 -3302 0
1 -451 -3347 0
1 -451 -3317 0
1 451 -3257 0
1 -451 -3226 0
1 466 -3242 0
1 466 3376 0
1 -466 3287 0
1 3302 -451 0
1 3302 -3301 0
1 3302 436 0
1 3317 3302 0
1 -3317 -466 0
1 -3332 512 0
1 3332 -3331 0
1 3332 3333 0
1 -3332 527 0
1 3347 -451 0
1 -3347 421 0
1 -3347 -527 0
1 3347 -3348 0
1 3347 -407 0
1 481 -3302 0
1 481 3272 0
1 481 3242 0
1 -481 -3196 0
1 -496 3302 0
1 -496 3242 0
1 -496 3211 0
1 496 3152 0
1 -496 -3287 0
1 -511 -512 0
1 511 -3242 0
1 511 3182 0
1 511 -3287 0
1 -526 -527 0
1 -526 3287 0
1 526 3197 0
1 3242 3257 0
1 -3242 616 0
1 -3242 -3241 0
1 -3242 -586 0
1 3242 -3243 0
1 -3242 601 0
1 -3242 -571 0
1 -3257 481 0
1 -3257 -451 0
1 -3257 496 0
1 3257 3258 0
1 3272 481 0
1 -3272 3273 0
1 3272 526 0
1 3272 572 0
1 3287 616 0
1 3287 3272 0
1 3287 -587 0
1 3287 -3288 0
1 3287 511 0
1 -541 3212 0
1 -541 3092 0
1 -541 540 0
1 556 -555 0
1 -556 -3212 0
1 -556 557 0
1 -556 3122 0
1 -556 -3257 0
1 571 3168 0
1 571 -3107 0
1 571 572 0
1 571 3197 0
1 586 -3168 0
1 -586 3107 0
1 586 -585 0
1 586 -3227 0
1 -586 3123 0
1 -586 3197 0
1 3182 645 0
1 -3182 615 0
1 -3182 586 0
1 3182 -556 0
1 -3182 -3197 0
1 -3197 -645 0
1 -3197 556 0
1 3197 3182 0
1 -3197 -630 0
1 -3197 -571 0
1 3197 3196 0
1 3212 -586 0
1 -3212 3211 0
1 -3212 556 0
1 -3212 -526 0
1 3212 -571 0
1 3212 -541 0
1 -3227 586 0
1 -3227 -3212 0
1 3227 571 0
1 -3227 541 0
1 -3227 511 0
1 600 3107 0
1 -600 615 0
1 -600 -3153 0
1 -600 3032 0
1 -600 3197 0
1 615 -3047 0
1 615 3123 0
1 615 -3062 0
1 615 -3032 0
1 -630 -631 0
1 -630 3182 0
1 630 -3153 0
1 645 3093 0
1 3123 -736 0
1 3123 -645 0
1 3123 -586 0
1 3123 -571 0
1 -3138 -615 0
1 -3138 -690 0
1 3138 660 0
1 -3138 630 0
1 -3153 736 0
1 3153 3168 0
1 3153 691 0
1 -3153 -661 0
1 -3153 600 0
1 3168 676 0
1 -3168 -3153 0
1 3168 691 0
1 660 -3138 0
1 660 -675 0
1 660 -3047 0
1 -675 3138 0
1 675 -660 0
1 -675 3093 0
1 -690 3093 0
1 705 -706 0
1 -705 3108 0
1 -705 3048 0
1 -3063 705 0
1 3063 675 0
1 -3063 -720 0
1 -3063 630 0
1 -3063 -765 0
1 3063 735 0
1 3078 645 0
1 3078 765 0
1 -3093 675 0
1 3093 3108 0
1 3093 645 0
1 -3093 -721 0
1 -3093 660 0
1 -3108 705 0
1 3108 645 0
1 3108 -3093 0
1 -720 -3048 0
1 720 -3018 0
1 720 735 0
1 -720 3033 0
1 -735 736 0
1 -735 3018 0
1 -735 -720 0
1 735 -3063 0
1 -765 -3078 0
1 -765 3048 0
1 -765 -750 0
1 765 -3063 0
1 765 3003 0
1 -765 -766 0
1 3003 735 0
1 -3018 -690 0
1 -3018 -3003 0
1 3033 750 0
1 -3048 720 0
1 3048 3033 0
1 -243 3570 0
1 243 3706 0
1 -243 3615 0
1 273 -288 0
1 -273 -3631 0
1 288 3631 0
1 -288 3646 0
1 3661 3662 0
1 3661 243 0
1 3661 -3676 0
1 3676 -303 0
1 -3676 243 0
1 -3676 -348 0
1 -3676 -318 0
1 3691 -273 0
1 3706 -243 0
1 303 3526 0
1 -303 3661 0
1 -303 -302 0
1 303 -3601 0
1 -303 -3676 0
1 -303 318 0
1 318 3616 0
1 -318 -3585 0
1 -318 -3526 0
1 -318 3631 0
1 -318 -3540 0
1 -318 -3676 0
1 318 3646 0
1 333 3631 0
1 333 3571 0
1 -333 3511 0
1 333 3646 0
1 348 -3556 0
1 348 3676 0
1 3601 393 0
1 -3601 273 0
1 3616 -3617 0
1 -3616 -3601 0
1 3631 303 0
1 -3631 318 0
1 -3646 423 0
1 -3646 303 0
1 -3646 -3647 0
1 -363 3571 0
1 363 378 0
1 378 3586 0
1 378 3496 0
1 378 3466 0
1 -393 -3616 0
1 393 3497 0
1 -408 -3541 0
1 -408 3482 0
1 -408 -3451 0
1 3541 452 0
1 3541 -393 0
1 -3541 -498 0
1 -3541 -467 0
1 3541 378 0
1 -3556 452 0
1 3556 422 0
1 -3556 -393 0
1 -3556 363 0
1 3556 498 0
1 3556 -408 0
1 3571 -3586 0
1 3571 -453 0
1 -3571 423 0
1 -3571 -393 0
1 -3571 -363 0
1 -3571 333 0
1 3571 -498 0
1 -3571 408 0
1 3586 483 0
1 -3586 -3587 0
1 3586 498 0
1 3586 -3571 0
1 -3586 468 0
1 -3586 -378 0
1 -422 -3556 0
1 422 3406 0
1 -422 3482 0
1 422 3421 0
1 -437 3497 0
1 437 -3436 0
1 -437 -3406 0
1 437 -436 0
1 437 -438 0
1 437 3512 0
1 -437 3421 0
1 -452 453 0
1 -452 3527 0
1 452 -3497 0
1 452 -3467 0
1 -452 -3437 0
1 -452 467 0
1 452 -3541 0
1 452 -3482 0
1 -452 3422 0
1 467 -3556 0
1 467 3406 0
1 -467 3452 0
1 467 3422 0
1 -3482 512 0
1 -3482 -452 0
1 3482 437 0
1 3497 3496 0
1 -3497 -467 0
1 -3512 452 0
1 3512 558 0
1 -3512 -498 0
1 3512 -467 0
1 -3527 513 0
1 -3527 -3528 0
1 -3527 437 0
1 -3527 408 0
1 482 483 0
1 482 3437 0
1 -482 -3422 0
1 497 3497 0
1 497 -3437 0
1 -497 3406 0
1 497 -496 0
1 497 -3376 0
1 497 498 0
1 -497 -3391 0
1 -512 -3392 0
1 -512 3497 0
1 -512 -3467 0
1 -512 -3377 0
1 527 -3377 0
1 527 3452 0
1 -527 -3422 0
1 3422 512 0
1 -3422 -3437 0
1 -3422 497 0
1 3422 572 0
1 -3437 -452 0
1 -3437 -557 0
1 -3437 3438 0
1 -3437 602 0
1 -3452 482 0
1 -3452 617 0
1 3452 558 0
1 3452 -527 0
1 -3452 602 0
1 -3452 -3451 0
1 3452 -573 0
1 -3467 -512 0
1 3467 -3468 0
1 -3467 527 0
1 -3467 -602 0
1 557 3362 0
1 557 556 0
1 -557 3437 0
1 -557 -558 0
1 -557 -3347 0
1 557 -3287 0
1 -572 3333 0
1 -572 3407 0
1 572 3348 0
1 -587 3392 0
1 587 3362 0
1 587 3272 0
1 587 -586 0
1 587 3377 0
1 -587 -3287 0
1 -3362 3361 0
1 -3362 -646 0
1 -3362 616 0
1 -3362 527 0
1 -3362 572 0
1 3377 -646 0
1 3377 662 0
1 -3392 512 0
1 -3392 -677 0
1 3392 647 0
1 -3392 -527 0
1 3407 3392 0
1 3407 587 0
1 -3407 527 0
1 3407 662 0
1 -601 3303 0
1 601 616 0
1 601 3242 0
1 601 3212 0
1 601 3348 0
1 -601 -3287 0
1 -616 3333 0
1 616 -617 0
1 616 -3303 0
1 616 3348 0
1 -631 -3333 0
1 631 3212 0
1 -631 3348 0
1 631 -3227 0
1 646 -3273 0
1 -646 -3348 0
1 646 -3318 0
1 646 -3258 0
1 3303 3302 0
1 -3303 631 0
1 3318 -616 0
1 -3318 601 0
1 -3333 737 0
1 -3333 646 0
1 3348 -707 0
1 -3348 -616 0
1 3348 -631 0
1 661 -3243 0
1 661 -3182 0
1 -661 3288 0
1 676 -3168 0
1 676 -3273 0
1 -676 -3243 0
1 -676 3212 0
1 676 -3318 0
1 -676 -3227 0
1 676 3197 0
1 -691 -3168 0
1 691 -3183 0
1 -691 -692 0
1 -691 3258 0
1 -691 3228 0
1 706 3243 0
1 -706 3213 0
1 706 -3288 0
1 706 3258 0
1 706 -3228 0
1 -3243 706 0
1 3243 676 0
1 3243 766 0
1 3258 661 0
1 -3273 -752 0
1 -3273 631 0
1 3288 -3273 0
1 3288 -722 0
1 3288 -3287 0
1 -721 736 0
1 721 -3168 0
1 -721 -3108 0
1 721 3243 0
1 721 -3153 0
1 -721 3258 0
1 -736 -3138 0
1 -736 3213 0
1 -736 721 0
1 736 3153 0
1 736 3123 0
1 736 -3093 0
1 -736 -3258 0
1 751 3108 0
1 751 -3183 0
1 751 766 0
1 -766 3258 0
1 -766 767 0
1 3183 3182 0
1 -3183 751 0
1 3213 -3212 0
1 -3213 3228 0
1 -3213 691 0
1 -3228 751 0
1 3228 721 0
1 -3228 -3227 0
1 3228 766 0
1 -423 3616 0
1 423 3692 0
1 -423 3631 0
1 -423 -3707 0
1 423 -3646 0
1 438 3616 0
1 438 3631 0
1 438 -3601 0
1 -438 437 0
1 -453 452 0
1 453 3662 0
1 -453 -3632 0
1 453 -468 0
1 453 3647 0
1 -468 -3692 0
1 468 3602 0
1 -3662 -528 0
1 3677 -513 0
1 3692 423 0
1 3707 453 0
1 3707 -3692 0
1 3707 468 0
1 483 -3617 0
1 -483 -3586 0
1 -483 -3527 0
1 -483 3541 0
1 -498 3527 0
1 498 -3541 0
1 -498 -3647 0
1 513 -512 0
1 513 3617 0
1 -513 3557 0
1 -513 3527 0
1 513 3662 0
1 513 3542 0
1 528 -3587 0
1 -528 3602 0
1 -528 3572 0
1 -528 -3542 0
1 528 3512 0
1 528 -3647 0
1 3602 -3617 0
1 3602 483 0
1 -3602 -558 0
1 -3602 -3601 0
1 3602 -573 0
1 3617 513 0
1 3617 -483 0
1 -3617 -618 0
1 3617 -573 0
1 3632 -483 0
1 3632 -453 0
1 3632 -528 0
1 -3632 -468 0
1 3632 -603 0
1 -3647 -483 0
1 3647 3646 0
1 3647 3632 0
1 3647 468 0
1 -3647 603 0
1 543 -3587 0
1 543 -3527 0
1 -543 3497 0
1 -543 3467 0
1 543 -558 0
1 543 3512 0
1 -543 -3482 0
1 -558 -3497 0
1 558 -3542 0
1 558 -3452 0
1 -573 -3617 0
1 -573 -3557 0
1 573 588 0
1 573 3513 0
1 -573 -572 0
1 -588 3528 0
1 588 3542 0
1 588 -3513 0
1 -588 -3452 0
1 -588 573 0
1 -3542 -3557 0
1 3542 647 0
1 3542 -617 0
1 3542 -558 0
1 -3542 -602 0
1 3542 543 0
1 3557 513 0
1 -3557 3556 0
1 -3557 678 0
1 -3557 588 0
1 -3557 528 0
1 -3572 -3587 0
1 3572 -618 0
1 -3572 558 0
1 3572 -633 0
1 3572 -603 0
1 -3572 -573 0
1 -3587 -558 0
1 -3587 633 0
1 -3587 -543 0
1 602 3392 0
1 -602 -3557 0
1 -602 -617 0
1 -602 3513 0
1 602 3407 0
1 602 3542 0
1 602 -601 0
1 617 -3467 0
1 617 3498 0
1 617 -602 0
1 -632 -3392 0
1 632 647 0
1 -632 3513 0
1 -632 -3468 0
1 632 3407 0
1 632 -3542 0
1 632 3483 0
1 632 -3453 0
1 -647 3392 0
1 647 648 0
1 -647 3542 0
1 -647 -632 0
1 647 -3483 0
1 647 3423 0
1 -3483 707 0
1 3483 -617 0
1 -3483 -588 0
1 -3483 723 0
1 3483 -662 0
1 3498 707 0
1 3498 588 0
1 -3498 662 0
1 3513 -678 0
1 3513 -693 0
1 3513 -632 0
1 3528 -738 0
1 3528 -678 0
1 3528 -617 0
1 3528 -588 0
1 -3528 663 0
1 -662 3362 0
1 662 -677 0
1 -662 -3498 0
1 -662 3468 0
1 -662 661 0
1 677 3392 0
1 677 -3362 0
1 677 -678 0
1 677 -3498 0
1 677 3377 0
1 677 662 0
1 -692 707 0
1 692 3333 0
1 692 3468 0
1 692 3408 0
1 -692 3378 0
1 707 3333 0
1 -707 3498 0
1 -3423 647 0
1 -3423 -752 0
1 3423 662 0
1 3438 3437 0
1 -3438 -752 0
1 3438 662 0
1 -3453 707 0
1 3453 -677 0
1 3453 -647 0
1 -3453 -662 0
1 3468 768 0
1 722 3273 0
1 722 3408 0
1 722 723 0
1 -737 -3363 0
1 737 3348 0
1 752 3393 0
1 752 3438 0
1 -767 -3438 0
1 -767 -752 0
1 767 -3378 0
1 767 766 0
1 3363 -707 0
1 3363 752 0
1 3363 767 0
1 -3378 737 0
1 3378 -752 0
1 3378 -767 0
1 -3393 3392 0
1 3393 3408 0
1 -3408 3393 0
1 -3408 3407 0
1 -603 3663 0
1 -618 -3663 0
1 -618 3708 0
1 633 -3618 0
1 -633 -648 0
1 -633 3708 0
1 648 3648 0
1 648 -633 0
1 648 -3678 0
1 -3663 -708 0
1 -3663 -678 0
1 3663 663 0
1 3678 678 0
1 -3678 648 0
1 -3678 -663 0
1 3678 3677 0
1 3693 648 0
1 3693 618 0
1 3693 3708 0
1 3708 -648 0
1 -663 3618 0
1 -663 678 0
1 663 -3663 0
1 663 3633 0
1 -663 -3542 0
1 663 3678 0
1 -678 -3587 0
1 678 3603 0
1 678 3572 0
1 -678 3678 0
1 -693 -3648 0
1 693 3558 0
1 -693 -692 0
1 693 3513 0
1 708 -3663 0
1 708 693 0
1 3603 -708 0
1 3603 648 0
1 -3603 -753 0
1 -3618 -3617 0
1 -3618 723 0
1 -3618 -3603 0
1 3618 -663 0
1 3633 -633 0
1 -3648 693 0
1 3648 633 0
1 3648 3647 0
1 723 3618 0
1 -723 -3558 0
1 -723 3468 0
1 -723 -722 0
1 723 -3483 0
1 738 3558 0
1 738 3528 0
1 -738 -3543 0
1 -753 3618 0
1 -753 -3468 0
1 -753 -3603 0
1 -753 3543 0
1 -753 -3453 0
1 768 -3588 0
1 768 3558 0
1 768 3573 0
1 768 3453 0
1 -3543 768 0
1 3543 -708 0
1 -3543 693 0
1 3558 -768 0
1 -3558 738 0
1 -3573 -738 0
1 3573 -708 0
1 -3573 723 0
1 3588 -738 0
1 3588 -723 0
